proyfinal/src/viki/013/experimentInOfficeAgust.take6.output/25bd1a67-e5f5-475c-a45a-b9404d9ee5d4.als.dat
{'cnf.clauses': '118081',
 'cnf.totvars': '69608',
 'conflict literals': '15',
 'conflicts': '9',
 'decisions': '3268',
 'memused.mb': '16.65',
 'outcome': 'UNSAT',
 'propagations': '24142',
 'restarts': '1',
 'solver.msecs': 30,
 'task.msecs': 78}
