proyfinal/src/viki/013/experimentInOfficeAgust.take6.output/25bd1a67-e5f5-475c-a45a-b9404d9ee5d4.als.out
Reading from standard input... Use '--help' for help.
============================[ Problem Statistics ]=============================
|                                                                             |
|  Number of variables:         69608                                         |
|  Number of clauses:          118081                                         |
|  Parse time:                   0.02 s                                       |
|                                                                             |
============================[ Search Statistics ]==============================
| Conflicts |          ORIGINAL         |          LEARNT          | Progress |
|           |    Vars  Clauses Literals |    Limit  Clauses Lit/Cl |          |
===============================================================================
===============================================================================
restarts              : 1
conflicts             : 9              (299 /sec)
decisions             : 3268           (0.00 % random) (108636 /sec)
propagations          : 24142          (802540 /sec)
conflict literals     : 15             (0.00 % deleted)
Memory used           : 16.65 MB
CPU time              : 0.030082 s

UNSATISFIABLE
